Minimize
 obj: 0 X_0_1
Subject To
 out_0:
  + 1 X_0_1 + 1 X_0_2 + 1 X_0_3 + 1 X_0_4
  = 1
 in_0:
  + 1 X_1_0 + 1 X_2_0 + 1 X_3_0 + 1 X_4_0
  = 1
 out_1:
  + 1 X_1_0 + 1 X_1_2 + 1 X_1_3 + 1 X_1_4
  = 1
 in_1:
  + 1 X_0_1 + 1 X_2_1 + 1 X_3_1 + 1 X_4_1
  = 1
 out_2:
  + 1 X_2_0 + 1 X_2_1 + 1 X_2_3 + 1 X_2_4
  = 1
 in_2:
  + 1 X_0_2 + 1 X_1_2 + 1 X_3_2 + 1 X_4_2
  = 1
 out_3:
  + 1 X_3_0 + 1 X_3_1 + 1 X_3_2 + 1 X_3_4
  = 1
 in_3:
  + 1 X_0_3 + 1 X_1_3 + 1 X_2_3 + 1 X_4_3
  = 1
 out_4:
  + 1 X_4_0 + 1 X_4_1 + 1 X_4_2 + 1 X_4_3
  = 1
 in_4:
  + 1 X_0_4 + 1 X_1_4 + 1 X_2_4 + 1 X_3_4
  = 1
 mtz_1_2:
  + 1 U1 - 1 U2 + 4 X_1_2
  <= 3
 mtz_1_3:
  + 1 U1 - 1 U3 + 4 X_1_3
  <= 3
 mtz_1_4:
  + 1 U1 - 1 U4 + 4 X_1_4
  <= 3
 mtz_2_1:
  + 1 U2 - 1 U1 + 4 X_2_1
  <= 3
 mtz_2_3:
  + 1 U2 - 1 U3 + 4 X_2_3
  <= 3
 mtz_2_4:
  + 1 U2 - 1 U4 + 4 X_2_4
  <= 3
 mtz_3_1:
  + 1 U3 - 1 U1 + 4 X_3_1
  <= 3
 mtz_3_2:
  + 1 U3 - 1 U2 + 4 X_3_2
  <= 3
 mtz_3_4:
  + 1 U3 - 1 U4 + 4 X_3_4
  <= 3
 mtz_4_1:
  + 1 U4 - 1 U1 + 4 X_4_1
  <= 3
 mtz_4_2:
  + 1 U4 - 1 U2 + 4 X_4_2
  <= 3
 mtz_4_3:
  + 1 U4 - 1 U3 + 4 X_4_3
  <= 3
 obj1:
  + 832 X_0_1 + 141 X_0_2 + 587 X_0_3 + 347 X_0_4 + 832 X_1_0 + 725 X_1_2 + 522 X_1_3 + 490 X_1_4
  + 141 X_2_0 + 725 X_2_1 + 569 X_2_3 + 235 X_2_4 + 587 X_3_0 + 522 X_3_1 + 569 X_3_2 + 427 X_3_4
  + 347 X_4_0 + 490 X_4_1 + 235 X_4_2 + 427 X_4_3
  <= 1
 obj2:
  + 797 X_0_1 + 729 X_0_2 + 538 X_0_3 + 435 X_0_4 + 797 X_1_0 + 784 X_1_2 + 728 X_1_3 + 963 X_1_4
  + 729 X_2_0 + 784 X_2_1 + 192 X_2_3 + 462 X_2_4 + 538 X_3_0 + 728 X_3_1 + 192 X_3_2 + 315 X_3_4
  + 435 X_4_0 + 963 X_4_1 + 462 X_4_2 + 315 X_4_3
  <= 2
 obj3:
  + 246 X_0_1 + 731 X_0_2 + 528 X_0_3 + 133 X_0_4 + 246 X_1_0 + 883 X_1_2 + 739 X_1_3 + 379 X_1_4
  + 731 X_2_0 + 883 X_2_1 + 310 X_2_3 + 656 X_2_4 + 528 X_3_0 + 739 X_3_1 + 310 X_3_2 + 417 X_3_4
  + 133 X_4_0 + 379 X_4_1 + 656 X_4_2 + 417 X_4_3
  <= 3
 obj4:
  + 738 X_0_1 + 336 X_0_2 + 664 X_0_3 + 179 X_0_4 + 738 X_1_0 + 936 X_1_2 + 673 X_1_3 + 562 X_1_4
  + 336 X_2_0 + 936 X_2_1 + 569 X_2_3 + 466 X_2_4 + 664 X_3_0 + 673 X_3_1 + 569 X_3_2 + 618 X_3_4
  + 179 X_4_0 + 562 X_4_1 + 466 X_4_2 + 618 X_4_3
  <= 4
 obj5:
  + 575 X_0_1 + 207 X_0_2 + 837 X_0_3 + 220 X_0_4 + 575 X_1_0 + 624 X_1_2 + 532 X_1_3 + 600 X_1_4
  + 207 X_2_0 + 624 X_2_1 + 990 X_2_3 + 33 X_2_4 + 837 X_3_0 + 532 X_3_1 + 990 X_3_2 + 979 X_3_4
  + 220 X_4_0 + 600 X_4_1 + 33 X_4_2 + 979 X_4_3
  <= 5
 obj6:
  + 535 X_0_1 + 693 X_0_2 + 318 X_0_3 + 556 X_0_4 + 535 X_1_0 + 634 X_1_2 + 257 X_1_3 + 452 X_1_4
  + 693 X_2_0 + 634 X_2_1 + 709 X_2_3 + 1023 X_2_4 + 318 X_3_0 + 257 X_3_1 + 709 X_3_2 + 321 X_3_4
  + 556 X_4_0 + 452 X_4_1 + 1023 X_4_2 + 321 X_4_3
  <= 6
Bounds
 1 <= U1 <= 4
 1 <= U2 <= 4
 1 <= U3 <= 4
 1 <= U4 <= 4
Binary
 X_0_1
 X_0_2
 X_0_3
 X_0_4
 X_1_0
 X_1_2
 X_1_3
 X_1_4
 X_2_0
 X_2_1
 X_2_3
 X_2_4
 X_3_0
 X_3_1
 X_3_2
 X_3_4
 X_4_0
 X_4_1
 X_4_2
 X_4_3
End
